&CONTROL
  calculation = 'scf',
  pseudo_dir = './'
  wf_collect = .TRUE.
/
&SYSTEM
  ibrav = 0,
  nat = 15,
  ntyp = 2,
  input_dft = 'PBE'
  ecutwfc = 80
  nspin = 1
  nbnd = 80
/
&ELECTRONS
/
&IONS
/
&CELL
/
ATOMIC_SPECIES
  Mg  24.3050 Mg_ONCV_PBE-1.2.upf
  O  15.9994 O_ONCV_PBE-1.2.upf
ATOMIC_POSITIONS crystal
Mg      -0.000000000   0.000000000  -0.000000000
Mg      -0.002103461  -0.002103461   0.502103461
Mg      -0.002103461   0.502103461  -0.002103461
Mg      -0.002103461   0.502103461   0.502103461
Mg       0.502103461  -0.002103461  -0.002103461
Mg       0.502103461  -0.002103461   0.502103461
Mg       0.502103461   0.502103461  -0.002103461
Mg       0.500000000   0.500000000   0.500000000
O        0.250000000   0.250000000   0.750000000
O        0.250000000   0.750000000   0.250000000
O        0.250000000   0.750000000   0.750000000
O        0.750000000   0.250000000   0.250000000
O        0.750000000   0.250000000   0.750000000
O        0.750000000   0.750000000   0.250000000
O        0.750000000   0.750000000   0.750000000
K_POINTS gamma
CELL_PARAMETERS angstrom
  -0.000000 4.249236 4.249236
  4.249236 0.000000 4.249236
  4.249236 4.249236 0.000000
