&CONTROL
calculation       = 'scf'
restart_mode      = 'from_scratch'
pseudo_dir        = './'
outdir            = './'
prefix            = 'calc'
wf_collect        = .TRUE.
/
&SYSTEM
ibrav             = 0
nat               = 1
ntyp              = 1
ecutwfc           = 30.0
nbnd              = 4
input_dft         = 'PBE'
nosym             = .TRUE.
noinv             = .TRUE.
/
&ELECTRONS
diago_full_acc = .TRUE.
conv_thr       = 1.d-8
/
ATOMIC_SPECIES
Si 28.085 Si_ONCV_PBE-1.2.upf
ATOMIC_POSITIONS {bohr}
Si 0.0 0.0 0.0
K_POINTS {gamma}
CELL_PARAMETERS {bohr}
1.0 0.0 0.0
0.0 1.0 0.0
0.0 0.0 1.0
